 ! --------------------------------------------------- CP Optimizer 22.1.1.0 --
 ! Maximization problem - 58 variables, 258 constraints
 ! Initial process time : 0.00s (0.00s extraction + 0.00s propagation)
 !  . Log search space  : 337.3 (before), 337.3 (after)
 !  . Memory usage      : 480.5 kB (before), 480.5 kB (after)
 ! Using parallel search with 8 workers.
 ! ----------------------------------------------------------------------------
 !          Best Branches  Non-fixed    W       Branch decision
                        0         58                 -
 + New bound is 56
                        0         58    1            -
 + New bound is 28
                        2         57    1   F     1 != labels(8)
 + New bound is 27
 *             1       58  0.04s        1      (gap is 2600%)
 *             2      393  0.04s        1      (gap is 1250%)
 *             3      642  0.04s        1      (gap is 800.0%)
 *             4      696  0.04s        1      (gap is 575.0%)
 *             5      751  0.04s        1      (gap is 440.0%)
 *             6      854  0.04s        1      (gap is 350.0%)
 *             7      970  0.04s        1      (gap is 285.7%)
               7     1000          2    1        19  = labels(17)
               7     1000          2    2        16  = labels(3)
               7     1000          2    3        19  = labels(43)
               7     1000          2    4        43 != labels(9)
               7     1000          2    5   F     7  = labels(55)
               7     1000          2    6        43 != labels(52)
               7     1000          2    7        41  = labels(24)
               7     1000          2    8        16 != labels(27)
               7     2000          6    7   F    41  = labels(41)
 *             8     1051  0.06s        1      (gap is 237.5%)
 ! Time = 0.06s, Average fail depth = 36, Memory usage = 13.0 MB
 ! Current bound is 27 (gap is 237.5%)
 !          Best Branches  Non-fixed    W       Branch decision
 *             9     1710  0.06s        1      (gap is 200.0%)
               9     2000          2    1   F    12  = labels(20)
               9     2000          2    2        36 != labels(35)
               9     2000          2    3        54 != labels(5)
               9     2000          2    4        12  = labels(34)
               9     2000          2    5        25 != labels(6)
               9     2000          2    6   F    39  = labels(7)
               9     2000          2    8        49 != labels(11)
               9     3000          8    5        22 != labels(7)
               9     3000         11    6        35  = labels(38)
               9     3000          5    1        34  = labels(55)
 *            10     2234  0.06s        2      (gap is 170.0%)
              10     3000          2    2   F    36  = labels(33)
              10     3000          2    3   F    16  = labels(5)
              10     3000          9    4        25  = labels(53)
              10     3000          2    7        25  = labels(14)
              10     3000          2    8   F    55  = labels(28)
              10     4000         18    3   F    24  = labels(50)
              10     4000         13    4        10  = labels(18)
              10     4000         14    5   F    44 != labels(30)
 ! Time = 0.06s, Average fail depth = 46, Memory usage = 13.1 MB
 ! Current bound is 27 (gap is 170.0%)
 !          Best Branches  Non-fixed    W       Branch decision
              10     4000         15    6   F    26  = labels(18)
              10     4000         16    8   F    30  = labels(45)
              10     4000          8    1        18  = labels(22)
 *            11     3593  0.06s        2      (gap is 145.5%)
              11     4000          2    2        17 != labels(7)
              11     4000         23    7   F    44  = labels(41)
              11     5000         27    8   F    53  = labels(27)
              11     5000         33    3   F    37  = labels(24)
              11     5000         30    5        48  = labels(29)
              11     5000         31    6        27 != labels(45)
              11     5000          2    1   F    18  = labels(37)
              11     5000         27    2   F    15  = labels(7)
              11     5000          4    4        32 != labels(21)
              11     5000         24    7   F    29  = labels(14)
              11     6000         45    8   F        -
              11     6000         31    3        46  = labels(49)
              11     6000         28    5         3 != labels(24)
              11     6000         31    6        51 != labels(6)
              11     6000         27    7         3 != labels(51)
              11     6000         31    1   F    28  = labels(52)
 ! Time = 0.08s, Average fail depth = 44, Memory usage = 13.4 MB
 ! Current bound is 27 (gap is 145.5%)
 !          Best Branches  Non-fixed    W       Branch decision
              11     6000         32    2   F    24  = labels(5)
              11     5939         25    4   F    53 != labels(26)
 + New bound is 18 (gap is 63.64%)
              11     6000         25    4        38 != labels(14)
              11     7000         37    5        43 != labels(56)
              11     7000         28    3        33 != labels(9)
              11     7000         43    7   F    14  = labels(24)
              11     7000         28    1   F    31  = labels(5)
              11     7000         43    4   F    38  = labels(57)
              11     8000         39    5   F    15  = labels(37)
              11     7000         33    6   F    37 != labels(33)
              11     7000         24    8        14 != labels(5)
              11     8000         29    3   F    34  = labels(37)
              11     7376         54    7   F    14 != labels(6)
 + New bound is 13 (gap is 18.18%)
              11     8000         54    1         4 != labels(27)
              11     7000         55    2   F    27  = labels(6)
              11     9000         41    5        16 != labels(9)
              11     8000         33    6   F     1 != labels(6)
              11     8000         31    8   F    15  = labels(14)
              11     9000         33    3        55 != labels(4)
              11     8000          5    7   F    15  = labels(27)
 ! Time = 0.10s, Average fail depth = 39, Memory usage = 13.7 MB
 ! Current bound is 13 (gap is 18.18%)
 !          Best Branches  Non-fixed    W       Branch decision
              11     8000         43    4        53  = labels(23)
              11    10000         44    5        14 != labels(20)
              11     9000         41    6        42 != labels(6)
              11     9000         36    8            -
              11     9000         42    1         8 != labels(5)
              11    10000         23    3   F    20  = labels(34)
              11     9000         54    7        40  = labels(6)
              11     8000         55    2   F    32  = labels(7)
              11     9000         11    4   F    20  = labels(41)
              11    11000         31    5        14  = labels(7)
              11    10000         53    6        30 != labels(27)
              11    10000         40    8        26 != labels(49)
              11    10000         32    1        41 != labels(54)
              11    11000         20    3        48 != labels(39)
              11     9000         55    2        15 != labels(27)
              11    10000          5    4   F     8  = labels(7)
              11    12000         27    5   F     6  = labels(27)
              11    11000         27    6        55 != labels(40)
              11    11000         28    8   F    24  = labels(39)
              11    11000         31    1   F    24  = labels(46)
 ! Time = 0.13s, Average fail depth = 38, Memory usage = 14.1 MB
 ! Current bound is 13 (gap is 18.18%)
 !          Best Branches  Non-fixed    W       Branch decision
              11    12000         24    3   F    33  = labels(6)
              11    10000         45    7         1 != labels(27)
              11    11000         42    4        30  = labels(25)
              11    13000         38    5   F    18  = labels(53)
              11    12000         27    6   F    16 != labels(7)
              11    12000         30    8   F    22  = labels(26)
              11    12000         28    1        17 != labels(5)
              11    13000         25    3   F    18  = labels(24)
              11    12000         42    4   F    21  = labels(5)
              11    13000         44    6            -
              11    13000         33    8        42 != labels(6)
              11    14000         25    3        56 != labels(20)
              11    10000         55    2   F    28  = labels(7)
              11    13000         34    4        20 != labels(5)
              11    14000         28    5        12 != labels(14)
              11    14000         25    6        19 != labels(21)
              11    14000         28    8   F    43  = labels(9)
              11    13000         55    1        36 != labels(27)
              11    11000         43    7   F    50  = labels(27)
              11    11000         50    2        22 != labels(17)
 ! Time = 0.15s, Average fail depth = 36, Memory usage = 13.8 MB
 ! Current bound is 13 (gap is 18.18%)
 !          Best Branches  Non-fixed    W       Branch decision
              11    15000         25    3   F    22 != labels(6)
              11    14000         41    4         6 != labels(5)
              11    15000         23    5   F    16 != labels(5)
              11    15000         20    6   F    32  = labels(39)
              11    15000         34    8        38 != labels(32)
              11    14000         55    1   F    36  = labels(27)
              11    16000         28    3        27 != labels(23)
              11    15000         53    4   F    19  = labels(9)
              11    16000         46    5        38 != labels(5)
              11    16000         28    6   F    48  = labels(26)
              11    16000         19    8   F    54  = labels(5)
              11    15000         55    1         8 != labels(5)
              11    17000         25    3        10 != labels(27)
              11    16000         53    4   F    41  = labels(9)
              11    17000         38    5   F    46  = labels(23)
              11    17000         28    6   F    33  = labels(14)
              11    17000         36    8   F    32 != labels(6)
              11    16000         55    1        37 != labels(21)
              11    12000         38    7         3 != labels(39)
              11    12000         50    2        49 != labels(26)
 ! Time = 0.17s, Average fail depth = 35, Memory usage = 13.8 MB
 ! Current bound is 13 (gap is 18.18%)
 !          Best Branches  Non-fixed    W       Branch decision
              11    18000         43    3   F    30  = labels(37)
              11    17000         53    4        17 != labels(7)
              11    18000         23    5   F    33  = labels(9)
              11    18000         24    6   F    27  = labels(43)
              11    18000         35    8        32 != labels(5)
              11    17000         52    1        25 != labels(39)
              11    19000         30    3        52 != labels(48)
              11    18000         54    4   F    25  = labels(7)
              11    19000         37    5   F    13  = labels(5)
              11    19000         29    6   F    37  = labels(20)
              11    19000         30    8        49 != labels(46)
              11    18000         47    1        30 != labels(39)
              11    13000         54    2   F    24  = labels(27)
              11    13000         38    7   F    51  = labels(27)
              11    20000         43    8   F    30  = labels(5)
              11    19000         51    1        27 != labels(39)
              11    14000         34    2         3  = labels(7)
              11    20000         39    3   F    23 != labels(9)
              11    19000         38    4        42 != labels(7)
              11    20000         45    5   F    29  = labels(26)
 ! Time = 0.20s, Average fail depth = 35, Memory usage = 13.8 MB
 ! Current bound is 13 (gap is 18.18%)
 !          Best Branches  Non-fixed    W       Branch decision
              11    20000         21    6        30 != labels(14)
              11    21000         28    8            -
              11    20000         38    1   F    52  = labels(7)
              11    15000         41    2   F    38  = labels(7)
              11    21000         28    3   F    33  = labels(39)
              11    20000         37    4        53 != labels(7)
              11    21000         29    5   F    41  = labels(13)
              11    21000         28    6   F    26  = labels(14)
              11    14000         42    7   F    55  = labels(27)
              11    22000         43    8   F     5  = labels(6)
              11    21000         38    1   F    17  = labels(7)
              11    16000         53    2         9 != labels(7)
              11    22000         30    3   F    33  = labels(39)
              11    22000         25    5   F    33  = labels(35)
              11    22000         28    6         9 != labels(26)
              11    15000         42    7   F    29  = labels(27)
              11    21000         40    4   F    11  = labels(8)
              11    23000         26    5        28 != labels(4)
              11    23000         30    6        38  = labels(19)
              11    16000         50    7         3 != labels(27)
 ! Time = 0.22s, Average fail depth = 35, Memory usage = 13.7 MB
 ! Current bound is 13 (gap is 18.18%)
 !          Best Branches  Non-fixed    W       Branch decision
              11    23000         44    8            -
              11    17000         54    2   F    35  = labels(27)
              11    23000         31    3   F    34  = labels(24)
              11    22000         52    4        10 != labels(8)
              11    24000         31    3   F    45  = labels(5)
              11    23000         52    4   F    15  = labels(8)
              11    24000         27    5   F    52  = labels(30)
              11    24000         36    6        20 != labels(33)
              11    24000         31    8   F    36  = labels(7)
              11    22000         27    1   F     9  = labels(7)
              11    18000         54    2   F    42  = labels(27)
              11    25000         28    5   F    10  = labels(17)
              11    25000         27    6   F    20  = labels(20)
              11    17000         54    7   F     6  = labels(8)
              11    25000         31    8         8 != labels(29)
              11    19000         54    2   F    20  = labels(7)
              11    25000         43    3   F    32  = labels(20)
              11    24000         53    4   F    54  = labels(27)
              11    25000         32    4        37 != labels(5)
              11    26000         31    5         5 != labels(51)
 ! Time = 0.24s, Average fail depth = 35, Memory usage = 13.8 MB
 ! Current bound is 13 (gap is 18.18%)
 !          Best Branches  Non-fixed    W       Branch decision
              11    26000         27    6   F    48  = labels(35)
              11    26000         31    8            -
              11    20000         50    2        47  = labels(27)
              11    18000         54    7   F    25  = labels(27)
              11    27000         42    8   F    17  = labels(5)
              11    23000         31    1   F    52  = labels(6)
              11    21000         34    2         7 != labels(31)
              11    26000         33    4        29 != labels(46)
              11    27000         37    5        54 != labels(36)
              11    27000         41    6         4  = labels(26)
              11    19000         55    7   F    28  = labels(7)
              11    19384         55    7            -
 + New bound is 11 (gap is 0.00%)
 ! ----------------------------------------------------------------------------
 ! Search completed, 11 solutions found.
 ! Best objective         : 11 (optimal - effective tol. is 0)
 ! Best bound             : 11
 ! ----------------------------------------------------------------------------
 ! Number of branches     : 197747
 ! Number of fails        : 92936
 ! Total memory usage     : 14.8 MB (14.4 MB CP Optimizer + 0.4 MB Concert)
 ! Time spent in solve    : 0.25s (0.25s engine + 0.00s extraction)
 ! Search speed (br. / s) : 790988.0
 ! ----------------------------------------------------------------------------
